1 1067
2 866
19 837
50 799
312 768



1 1098
2 977
3 919
5 887
6 873
12 841
34 830
65 825
119 804
227 801
288 793
442 792



1 1057
2 1004
3 922
4 856
9 852
13 845
20 835
68 833
89 817
125 807
140 788
235 787



1 1081
2 945
3 875
5 835
15 824
67 823
181 819
193 813
266 794
472 786



1 1027
2 905
5 885
12 853
23 825
65 790
716 751



